2 198 38 96 19 118 11 137 25 164 70 157 177 136 179 194 185 167 10 128 61 99 123 91 64 183 55 67 65 155 42 41 172 31 80 76 109 152 108 193 103 36 141 14 189 174 69 49 171 140 85 79 74 37 145 100 147 86 143 102 1 87 16 24 117 33 188 47 62 53 127 133 77 9 166 175 129 46 71 173 23 119 181 125 106 63 18 12 148 116 184 105 35 104 190 163 134 48 51 94 126 191 156 21 131 29 68 50 111 154 180 159 93 135 92 90 32 196 138 113 122 72 107 54 195 186 81 161 121 82 110 199 22 150 73 182 40 27 144 120 0 170 28 7 124 30 97 13 146 176 44 5 197 115 162 88 58 45 132 4 59 130 83 178 98 43 149 60 57 168 158 66 26 192 15 84 139 52 75 8 160 3 56 187 151 6 114 165 20 101 112 89 169 142 153 34 78 95 39 17 

